1.000000 1.000000 0.750000
5
5 2 3 4 5 6 
5 7 8 9 10 11 
5 12 13 14 15 16 
5 17 18 19 20 21 
5 22 23 24 25 26 
1 1 
1 2 
1 2 
1 2 
1 2 
1 2 
1 2 
1 2 
1 2 
1 2 
1 2 
1 2 
1 2 
1 2 
1 2 
1 2 
1 2 
1 2 
1 2 
1 2 
1 2 
1 2 
1 2 
1 2 
1 2 
1 2 
1 2 
1 2 
1 2 
1 2 
1 2 
1 2 
1 2 
1 2 
1 2 
1 2 
1 2 
1 2 
1 2 
1 2 
1 2 
1 2 
1 2 
1 2 
1 2 
1 2 
1 2 
1 2 
1 2 
1 2 
1 2 
1 2 
1 2 
1 3 
1 3 
1 3 
1 3 
1 3 
1 3 
1 3 
1 3 
1 3 
1 3 
1 3 
1 3 
1 3 
1 3 
1 3 
1 3 
1 3 
1 3 
1 3 
1 3 
1 3 
1 3 
1 3 
1 3 
1 3 
1 3 
1 3 
1 3 
1 3 
1 3 
1 3 
1 3 
1 3 
1 3 
1 3 
1 3 
1 3 
1 3 
1 3 
1 3 
1 3 
1 3 
1 3 
1 3 
1 3 
1 3 
1 3 
1 3 
1 3 
1 3 
1 3 
1 3 
1 4 
1 4 
1 4 
1 4 
1 4 
1 4 
1 4 
1 4 
1 4 
1 4 
1 4 
1 4 
1 4 
1 4 
1 4 
1 4 
1 4 
1 4 
1 4 
1 4 
1 4 
1 4 
1 4 
1 4 
1 4 
1 4 
1 4 
1 4 
1 4 
1 4 
1 4 
1 4 
1 4 
1 4 
1 4 
1 4 
1 4 
1 4 
1 4 
1 4 
1 4 
1 4 
1 4 
1 4 
1 4 
1 4 
1 4 
1 4 
1 4 
1 4 
1 4 
1 4 
1 5 
1 5 
1 5 
1 5 
1 5 
1 5 
1 5 
1 5 
1 5 
1 5 
1 5 
1 5 
1 5 
1 5 
1 5 
1 5 
1 5 
1 5 
1 5 
1 5 
1 5 
1 5 
1 5 
1 5 
1 5 
1 5 
1 5 
1 5 
1 5 
1 5 
1 5 
1 5 
1 5 
1 5 
1 5 
1 5 
1 5 
1 5 
1 5 
1 5 
1 5 
1 5 
1 5 
1 5 
1 5 
1 5 
1 5 
1 5 
1 5 
1 5 
1 5 
1 5 
1 6 
1 6 
1 6 
1 6 
1 6 
1 6 
1 6 
1 6 
1 6 
1 6 
1 6 
1 6 
1 7 
1 7 
1 7 
1 7 
1 7 
1 7 
1 7 
1 7 
1 7 
1 7 
1 7 
1 7 
1 8 
1 8 
1 8 
1 8 
1 8 
1 8 
1 8 
1 8 
1 8 
1 8 
1 8 
1 8 
1 8 
1 8 
1 8 
1 8 
1 8 
1 8 
1 8 
1 8 
1 8 
1 8 
1 8 
1 8 
1 8 
1 8 
1 8 
1 8 
1 8 
1 8 
1 8 
1 8 
1 8 
1 8 
1 8 
1 8 
1 8 
1 8 
1 8 
1 8 
1 8 
1 8 
1 9 
1 9 
1 9 
1 9 
1 9 
1 9 
1 9 
1 9 
1 9 
1 9 
1 9 
1 9 
1 9 
1 9 
1 9 
1 9 
1 9 
1 9 
1 9 
1 9 
1 9 
1 9 
1 9 
1 9 
1 9 
1 9 
1 9 
1 9 
1 9 
1 9 
1 9 
1 9 
1 9 
1 9 
1 9 
1 9 
1 9 
1 9 
1 9 
1 9 
1 9 
1 9 
1 10 
1 10 
1 10 
1 10 
1 10 
1 10 
1 10 
1 10 
1 10 
1 10 
1 10 
2 10 9 
2 10 9 
2 10 9 
1 10 
2 10 9 
2 10 9 
2 10 9 
2 10 9 
1 10 
2 10 9 
2 10 9 
2 10 9 
1 10 
2 10 9 
2 10 9 
2 10 9 
2 10 9 
2 10 9 
2 10 9 
2 10 9 
2 10 9 
2 10 9 
2 10 9 
2 10 9 
2 10 9 
2 10 9 
2 10 9 
2 10 9 
2 10 9 
1 10 
2 10 9 
1 11 
1 11 
1 11 
1 11 
1 11 
1 11 
1 11 
1 11 
1 11 
1 11 
1 11 
1 11 
1 11 
1 11 
1 11 
1 11 
1 11 
1 11 
1 11 
1 11 
1 11 
1 11 
1 11 
1 11 
1 11 
1 11 
3 11 10 9 
3 11 10 9 
3 11 10 9 
1 11 
3 11 10 9 
3 11 10 9 
3 11 10 9 
3 11 10 9 
3 11 10 9 
3 11 10 9 
1 11 
1 11 
1 11 
1 11 
1 11 
3 11 10 9 
1 12 
1 12 
1 12 
1 12 
1 12 
1 12 
1 12 
1 12 
1 12 
1 12 
1 12 
1 12 
1 12 
1 12 
1 12 
1 12 
1 12 
1 12 
1 12 
1 12 
1 12 
1 12 
1 12 
1 12 
1 12 
1 12 
1 12 
1 12 
1 12 
1 12 
1 12 
1 12 
1 13 
1 13 
1 13 
1 13 
1 13 
1 13 
1 13 
1 13 
1 13 
1 13 
1 13 
1 13 
1 13 
1 13 
1 13 
1 13 
1 13 
1 13 
1 13 
1 13 
1 13 
1 13 
1 13 
1 13 
1 13 
1 13 
1 13 
1 13 
1 13 
1 13 
1 13 
1 13 
1 14 
1 14 
1 14 
1 14 
1 14 
2 14 3 
1 14 
1 14 
2 14 3 
2 14 3 
2 14 3 
2 14 3 
1 15 
1 15 
1 15 
1 15 
1 15 
1 15 
1 15 
1 15 
1 15 
1 15 
1 15 
1 15 
1 15 
1 15 
1 15 
1 15 
1 15 
1 15 
1 15 
1 15 
1 15 
1 15 
1 15 
1 15 
1 15 
1 15 
1 15 
1 15 
1 15 
1 15 
1 15 
1 15 
1 16 
1 16 
1 16 
1 16 
1 16 
1 16 
1 16 
1 16 
1 16 
1 16 
1 16 
1 16 
1 16 
1 16 
1 16 
1 16 
2 16 13 
2 16 13 
1 16 
1 16 
2 16 13 
2 16 13 
2 16 13 
2 16 13 
2 16 13 
2 16 13 
2 16 13 
2 16 13 
2 16 13 
3 16 6 13 
3 16 6 13 
3 16 6 13 
1 17 
1 17 
1 17 
1 17 
1 17 
1 17 
1 17 
1 17 
1 17 
1 17 
1 17 
1 17 
1 17 
1 17 
1 17 
1 17 
1 17 
1 17 
1 17 
1 17 
1 17 
1 17 
1 18 
1 18 
2 18 2 
2 18 2 
2 18 2 
2 18 2 
2 18 2 
1 18 
2 18 2 
2 18 2 
2 18 2 
2 18 2 
1 19 
1 19 
2 19 14 
2 19 14 
2 19 14 
2 19 14 
2 19 14 
2 19 14 
2 19 14 
1 19 
2 19 14 
2 19 14 
2 19 14 
2 19 14 
2 19 14 
1 19 
2 19 14 
1 19 
3 19 5 14 
2 19 14 
1 19 
3 19 5 14 
1 20 
2 20 8 
2 20 8 
3 20 8 12 
3 20 8 12 
3 20 8 12 
3 20 8 12 
4 20 8 12 16 
4 20 8 12 16 
4 20 8 12 16 
4 20 8 12 16 
4 20 8 12 16 
5 20 7 8 12 16 
5 20 7 8 12 16 
5 20 7 8 12 16 
5 20 7 8 12 16 
4 20 8 12 16 
4 20 8 12 16 
3 20 8 12 
2 20 8 
1 20 
5 20 7 8 12 16 
1 21 
1 21 
1 21 
1 21 
1 21 
1 21 
1 21 
1 21 
1 21 
1 21 
1 21 
1 21 
1 21 
1 21 
1 21 
1 21 
1 21 
1 21 
1 21 
1 21 
1 21 
1 21 
1 22 
1 22 
1 22 
1 22 
1 22 
1 22 
1 22 
1 22 
1 22 
1 22 
1 22 
1 22 
1 23 
1 23 
1 23 
1 23 
1 23 
1 23 
1 23 
1 23 
1 23 
1 23 
1 23 
1 23 
1 24 
1 24 
2 24 4 
4 24 4 18 2 
4 24 4 18 2 
4 24 4 18 2 
4 24 4 18 2 
1 24 
4 24 4 18 2 
5 24 4 15 18 2 
2 24 4 
5 24 4 15 18 2 
1 25 
1 25 
1 25 
1 25 
1 25 
1 25 
3 25 19 14 
3 25 19 14 
3 25 19 14 
4 25 17 19 14 
1 25 
4 25 17 19 14 
1 26 
1 26 
1 26 
2 26 11 
2 26 11 
1 26 
2 26 11 
2 26 11 
2 26 11 
2 26 11 
2 26 11 
2 26 11 
1 1 
